
******************************************************************************
This program contains Ipopt, a library for large-scale nonlinear optimization.
 Ipopt is released as open source code under the Eclipse Public License (EPL).
         For more information visit http://projects.coin-or.org/Ipopt

This version of Ipopt was compiled from source code available at
    https://github.com/IDAES/Ipopt as part of the Institute for the Design of
    Advanced Energy Systems Process Systems Engineering Framework (IDAES PSE
    Framework) Copyright (c) 2018-2019. See https://github.com/IDAES/idaes-pse.

This version of Ipopt was compiled using HSL, a collection of Fortran codes
    for large-scale scientific computation.  All technical papers, sales and
    publicity material resulting from use of the HSL codes within IPOPT must
    contain the following acknowledgement:
        HSL, a collection of Fortran codes for large-scale scientific
        computation. See http://www.hsl.rl.ac.uk.
******************************************************************************

This is Ipopt version 3.13.2, running with linear solver ma27.

Number of nonzeros in equality constraint Jacobian...:      914
Number of nonzeros in inequality constraint Jacobian.:        0
Number of nonzeros in Lagrangian Hessian.............:      918

Total number of variables............................:      378
                     variables with only lower bounds:      108
                variables with lower and upper bounds:      216
                     variables with only upper bounds:        0
Total number of equality constraints.................:      376
Total number of inequality constraints...............:        0
        inequality constraints with only lower bounds:        0
   inequality constraints with lower and upper bounds:        0
        inequality constraints with only upper bounds:        0

iter    objective    inf_pr   inf_du lg(mu)  ||d||  lg(rg) alpha_du alpha_pr  ls
   0  0.0000000e+00 4.10e-01 1.42e-14  -1.0 0.00e+00    -  0.00e+00 0.00e+00   0
   1  6.6109764e-02 7.79e-01 1.62e+04  -1.0 8.03e+04    -  7.11e-01 2.87e-01h  1
   2  6.9964217e-02 7.71e-01 1.62e+04  -1.0 6.34e+04    -  8.62e-01 1.07e-02h  1
   3  4.3155938e+00 2.16e-01 1.13e+04  -1.0 2.17e+05    -  7.80e-01 5.92e-01h  1
   4  1.5120239e+01 3.03e-01 5.90e+04  -1.0 1.17e+05    -  5.67e-01 9.90e-01h  1
   5  1.5248445e+01 2.80e-03 1.05e+03  -1.0 2.50e+03    -  9.60e-01 9.90e-01h  1
   6  1.5230217e+01 1.52e-04 5.23e+01  -1.0 9.06e+03    -  9.90e-01 9.90e-01h  1
   7  1.5268075e+01 1.28e-04 6.15e+02  -1.0 8.96e+03    -  9.90e-01 9.90e-01h  1
   8  1.5199622e+01 1.65e-04 5.10e+07  -2.5 1.33e+04    -  9.97e-01 4.78e-01f  2
   9  1.5140658e+01 1.90e-04 6.76e+05  -2.5 8.54e+03    -  1.00e+00 9.97e-01h  1
iter    objective    inf_pr   inf_du lg(mu)  ||d||  lg(rg) alpha_du alpha_pr  ls
  10  1.5141742e+01 4.66e-07 1.88e+08  -2.5 8.96e+01    -  1.00e+00 9.97e-01h  1
In iteration 10, 27 Slacks too small, adjusting variable bounds
  11  1.5141745e+01 1.32e-09 6.64e+10  -2.5 2.78e-01    -  1.00e+00 9.97e-01h  1
  12  1.5141745e+01 6.97e-12 1.91e-03  -2.5 7.88e-04    -  1.00e+00 1.00e+00h  1
  13  1.5138886e+01 7.42e-10 1.00e+08  -9.0 4.88e+02    -  9.99e-01 9.98e-01F  1
  14  1.5138886e+01 2.70e-11 1.19e-07  -9.0 3.31e+00    -  1.00e+00 1.00e+00h  1

Number of Iterations....: 14

                                   (scaled)                 (unscaled)
Objective...............:   1.5138886467831604e+01    1.5138886467831604e+01
Dual infeasibility......:   1.1946758604608476e-07    1.1946758604608476e-07
Constraint violation....:   2.7010171876895583e-11    2.7010171876895583e-11
Complementarity.........:   1.2236341715621848e-09    1.2236341715621848e-09
Overall NLP error.......:   9.4287103552258813e-09    1.1946758604608476e-07


Number of objective function evaluations             = 19
Number of objective gradient evaluations             = 15
Number of equality constraint evaluations            = 19
Number of inequality constraint evaluations          = 0
Number of equality constraint Jacobian evaluations   = 15
Number of inequality constraint Jacobian evaluations = 0
Number of Lagrangian Hessian evaluations             = 14
Total CPU secs in IPOPT (w/o function evaluations)   =      0.035
Total CPU secs in NLP function evaluations           =      0.321

EXIT: Optimal Solution Found.
